p tw 130 300
0 1
0 2
0 21
0 22
0 42
0 63
0 47
0 69
0 74
0 75
0 86
0 87
0 88
0 89
0 39
0 91
0 83
0 114
0 101
0 123
1 2
1 31
1 38
3 4
3 5
3 26
3 68
4 5
4 41
4 98
5 12
5 13
5 19
5 20
5 53
5 54
5 32
5 60
5 34
5 93
5 119
5 120
5 89
5 122
5 44
5 71
6 7
6 8
7 8
7 63
7 68
8 14
8 15
8 44
8 45
8 56
8 76
8 86
8 92
8 102
8 103
8 9
8 110
8 22
8 116
8 93
8 121
8 109
8 119
9 10
9 11
9 110
10 11
10 17
10 46
11 23
11 24
11 32
11 33
11 34
11 35
11 36
11 37
11 39
11 40
11 49
11 50
11 55
11 56
11 90
11 99
11 106
11 107
11 43
11 111
11 25
11 124
11 103
11 126
12 13
12 17
12 29
14 15
14 27
14 88
16 17
16 18
17 18
17 46
17 61
17 62
17 67
17 101
17 29
17 92
17 115
17 59
17 121
17 122
17 125
17 120
17 129
18 27
18 91
19 20
20 27
20 104
21 22
21 41
21 106
22 116
23 24
23 72
23 87
25 26
25 27
25 124
26 27
26 68
27 28
27 29
27 66
27 67
27 74
27 97
27 84
27 100
27 104
27 108
27 117
27 88
27 91
27 33
27 128
28 29
28 30
28 31
30 31
30 72
30 95
31 38
31 40
31 57
31 51
31 60
31 64
31 65
31 61
31 85
31 78
31 105
31 37
31 114
31 53
31 102
31 48
31 127
32 33
32 60
33 128
34 35
34 93
36 37
37 114
38 72
38 73
39 40
39 91
40 57
41 42
41 43
41 47
41 48
41 51
41 52
41 58
41 59
41 46
41 70
41 78
41 79
41 65
41 82
41 73
41 90
41 50
41 96
41 98
41 66
41 81
41 108
41 109
41 62
41 104
41 106
42 43
42 63
43 111
44 45
44 71
46 70
47 48
47 69
48 127
49 50
49 71
49 72
50 96
51 52
51 60
53 54
53 102
54 68
54 113
55 56
56 76
58 59
59 121
61 62
61 85
62 104
63 68
64 65
64 72
64 75
65 82
66 67
66 81
67 101
68 69
68 77
68 113
69 77
70 72
70 94
71 72
72 73
72 80
72 81
72 83
72 84
72 94
72 95
72 75
72 77
72 112
72 87
72 116
72 118
72 76
72 105
73 90
74 75
74 97
76 105
77 112
78 79
78 105
80 81
83 84
83 114
84 100
86 87
86 92
88 89
89 122
90 99
92 115
93 121
101 123
102 103
103 126
106 107
108 109
108 117
109 119
116 118
119 120
120 129
122 125
